problems/csplib-prob030/BalancedAcademicCurriculumProblem-models/compact/O2/minion/model-bacp-20-solution000001.eprime-solution
language ESSENCE' 1.0

letting curr_Function1D be
        [10, 7, 1, 10, 1, 9, 9, 6, 8, 5, 8, 8, 4, 3, 4, 7, 4, 7, 4, 6, 2, 3, 3, 3, 2, 2, 5, 2, 1, 4, 2, 1, 2, 3, 3, 4,
         3, 2, 3, 2, 2, 2, 3, 1, 1, 1, 1, 3, 1, 1;
             int(1..50)]
