problems/csplib-prob030/BalancedAcademicCurriculumProblem-models/noch/O2/minion/model-bacp-20-solution000001.solution
language Essence 1.3

letting curr be
        function(1 --> 10, 2 --> 7, 3 --> 1, 4 --> 10, 5 --> 1, 6 --> 9, 7 --> 9, 8 --> 6, 9 --> 8, 10 --> 5, 11 --> 8,
                 12 --> 8, 13 --> 4, 14 --> 3, 15 --> 4, 16 --> 7, 17 --> 4, 18 --> 7, 19 --> 4, 20 --> 6, 21 --> 2,
                 22 --> 3, 23 --> 3, 24 --> 3, 25 --> 2, 26 --> 2, 27 --> 5, 28 --> 2, 29 --> 1, 30 --> 4, 31 --> 2,
                 32 --> 1, 33 --> 2, 34 --> 3, 35 --> 3, 36 --> 4, 37 --> 3, 38 --> 2, 39 --> 3, 40 --> 2, 41 --> 2,
                 42 --> 2, 43 --> 3, 44 --> 1, 45 --> 1, 46 --> 1, 47 --> 1, 48 --> 3, 49 --> 1, 50 --> 1)
